
Gurobi 9.0.1 (linux64) logging started Fri May  1 15:45:05 2020

Gurobi Optimizer version 9.0.1 build v9.0.1rc0 (linux64)
Optimize a model with 10948 rows, 9782 columns and 53724 nonzeros
Model fingerprint: 0xcc4e8921
Variable types: 0 continuous, 9782 integer (9702 binary)
Coefficient statistics:
  Matrix range     [1e+00, 2e+01]
  Objective range  [2e+00, 1e+02]
  Bounds range     [1e+00, 1e+00]
  RHS range        [1e+00, 2e+01]

User MIP start produced solution with objective 1199 (0.03s)
Loaded user MIP start with objective 1199

Presolve removed 8224 rows and 1302 columns
Presolve time: 4.99s
Presolved: 2724 rows, 8480 columns, 27520 nonzeros
Variable types: 0 continuous, 8480 integer (8440 binary)

Root simplex log...

Iteration    Objective       Primal Inf.    Dual Inf.      Time
       0    0.0000000e+00   1.463000e+03   0.000000e+00      5s
    1786    7.3180000e+02   0.000000e+00   0.000000e+00      5s

Root relaxation: objective 7.318000e+02, 1786 iterations, 0.10 seconds

    Nodes    |    Current Node    |     Objective Bounds      |     Work
 Expl Unexpl |  Obj  Depth IntInf | Incumbent    BestBd   Gap | It/Node Time

     0     0  731.80000    0   56 1199.00000  731.80000  39.0%     -    5s
     0     0  796.30000    0  130 1199.00000  796.30000  33.6%     -    5s
     0     0  796.40714    0  121 1199.00000  796.40714  33.6%     -    5s
     0     0  796.40714    0  123 1199.00000  796.40714  33.6%     -    5s
     0     0  803.38462    0  133 1199.00000  803.38462  33.0%     -    5s
     0     0  803.50000    0  132 1199.00000  803.50000  33.0%     -    5s
     0     0  803.83051    0  135 1199.00000  803.83051  33.0%     -    5s
     0     0  804.39091    0  168 1199.00000  804.39091  32.9%     -    6s
     0     0  806.19385    0  178 1199.00000  806.19385  32.8%     -    6s
     0     0  806.68511    0  177 1199.00000  806.68511  32.7%     -    6s
     0     0  806.79231    0  174 1199.00000  806.79231  32.7%     -    6s
     0     0  806.80000    0  177 1199.00000  806.80000  32.7%     -    6s
     0     0  807.78095    0  151 1199.00000  807.78095  32.6%     -    6s
     0     0  809.18462    0  105 1199.00000  809.18462  32.5%     -    6s
     0     0  809.37500    0   91 1199.00000  809.37500  32.5%     -    6s
     0     0  809.45455    0   92 1199.00000  809.45455  32.5%     -    6s
     0     0  809.45570    0   99 1199.00000  809.45570  32.5%     -    6s
     0     0  809.45608    0   98 1199.00000  809.45608  32.5%     -    6s
     0     0  809.46154    0   96 1199.00000  809.46154  32.5%     -    7s
     0     0  809.46875    0  100 1199.00000  809.46875  32.5%     -    7s
     0     0  809.46875    0  101 1199.00000  809.46875  32.5%     -    7s
     0     0  809.46875    0  101 1199.00000  809.46875  32.5%     -    7s
     0     0  809.46875    0  103 1199.00000  809.46875  32.5%     -    7s
     0     0  809.46875    0  100 1199.00000  809.46875  32.5%     -    7s
     0     0  809.46875    0   97 1199.00000  809.46875  32.5%     -    7s
     3     3  812.32692    2   47 1199.00000  812.32692  32.2%  2451   11s
   411   375  952.20000  128   15 1199.00000  812.92308  32.2%  29.6   15s
H  502   455                    1196.0000000  813.21341  32.0%  22.1   16s
   772   716  861.21341  103   77 1196.00000  814.49675  31.9%  32.2   20s
H 1002   907                    1171.0000000  815.13841  30.4%  29.5   22s
  1038   936  817.15779   15   58 1171.00000  817.15779  30.2%  37.5   25s
  1226  1033  978.92500  109   93 1171.00000  817.32543  30.2%  40.2   30s
H 1524   746                     962.0000000  817.92500  15.0%  35.8   33s
  1578    56  821.52857   68   44  962.00000  817.92500  15.0%   3.5   35s
H 1801   233                     921.0000000  817.92500  11.2%   4.7   37s
H 1855   269                     913.0000000  817.92500  10.4%   5.0   37s
H 1909   315                     894.0000000  817.92500  8.51%   4.9   38s
  2043   434  873.00000  139   48  894.00000  817.92500  8.51%   5.4   40s
H 2194   500                     854.0000000  817.92500  4.22%  11.2   44s
  2231   518  824.13333   33   84  854.00000  817.92500  4.22%  11.7   45s
H 2694   653                     835.0000000  821.35000  1.63%  14.9   49s
  2723   656  825.45000   43   54  835.00000  821.72105  1.59%  15.1   50s
H 2775   162                     825.0000000  822.00000  0.36%  15.4   50s

Cutting planes:
  Learned: 10
  Gomory: 1
  Cover: 7
  Implied bound: 43
  Projected implied bound: 3
  MIR: 23
  Flow cover: 30
  Inf proof: 1
  Zero half: 3
  Mod-K: 4
  RLT: 41
  Relax-and-lift: 9

Explored 2804 nodes (104369 simplex iterations) in 50.64 seconds
Thread count was 1 (of 40 available processors)

Solution count 10: 825 835 854 ... 1199

Optimal solution found (tolerance 1.00e-04)
Best objective 8.250000000000e+02, best bound 8.250000000000e+02, gap 0.0000%

User-callback calls 11910, time in user-callback 0.02 sec
